NAME : tsp_107_sol.txt
COMMENT : OR-Tools Guided Local Search
TYPE : TOUR
DIMENSION : 50
COST : 5671
STATUS : ROUTING_SUCCESS
GAP : 0.00% (Reference Solution)
TOUR_SECTION
1
13
25
30
39
40
11
18
21
7
44
23
3
17
10
50
16
46
15
4
34
8
14
43
38
47
2
28
41
20
26
12
27
37
9
22
42
33
6
31
19
48
36
32
24
45
5
29
35
49
-1
